# Generated by ConicBenchmarkUtilities.jl
VER
2

OBJSENSE
MIN

VAR
67 1
F 67

INT
15
7
8
9
10
11
12
13
14
15
16
17
18
19
20
21

CON
197 175
L= 1
L= 1
L= 1
L= 1
L= 1
L= 1
L= 1
L= 1
L= 1
L= 1
L= 1
EXP 3
L+ 1
L+ 1
L+ 1
EXP 3
L+ 1
L+ 1
L+ 1
L+ 1
L+ 1
L+ 1
L+ 1
EXP 3
L+ 1
L+ 1
L+ 1
L+ 1
L+ 1
L+ 1
L+ 1
L+ 1
L+ 1
L+ 1
EXP 3
L+ 1
L+ 1
L+ 1
EXP 3
L+ 1
L+ 1
L+ 1
EXP 3
L+ 1
L+ 1
L+ 1
L+ 1
L+ 1
L+ 1
L+ 1
L+ 1
L+ 1
L+ 1
L+ 1
EXP 3
L+ 1
L+ 1
L+ 1
L+ 1
L+ 1
L+ 1
L+ 1
L+ 1
L+ 1
L+ 1
EXP 3
L+ 1
L+ 1
L+ 1
EXP 3
L+ 1
L+ 1
L+ 1
EXP 3
L+ 1
EXP 3
L+ 1
L+ 1
L+ 1
L+ 1
L= 1
L+ 1
L+ 1
L+ 1
L+ 1
L+ 1
L+ 1
L+ 1
L+ 1
L+ 1
L+ 1
L+ 1
L+ 1
L+ 1
L+ 1
L+ 1
L+ 1
L+ 1
L+ 1
L+ 1
L+ 1
L+ 1
L+ 1
L+ 1
L+ 1
L+ 1
L+ 1
L+ 1
L+ 1
L+ 1
L+ 1
L+ 1
L+ 1
L+ 1
L+ 1
L+ 1
L+ 1
L+ 1
L+ 1
L+ 1
L+ 1
L+ 1
L+ 1
L+ 1
L+ 1
L+ 1
L+ 1
L+ 1
L+ 1
L+ 1
L+ 1
L+ 1
L+ 1
L+ 1
L+ 1
L+ 1
L+ 1
L+ 1
L+ 1
L+ 1
L+ 1
L+ 1
L+ 1
L+ 1
L+ 1
L+ 1
L+ 1
L+ 1
L+ 1
L+ 1
L+ 1
L+ 1
L+ 1
L+ 1
L+ 1
L+ 1
L+ 1
L+ 1
L+ 1
L+ 1
L+ 1
L+ 1
L+ 1
L+ 1
L+ 1
L+ 1
L+ 1
L+ 1
L+ 1
L+ 1
L+ 1
L+ 1
L+ 1
L+ 1
L+ 1

OBJACOORD
1
22 -1.0

ACOORD
342
0 0 5.0
3 0 -1.0
130 0 1.0
0 1 500.0
9 1 1.0
62 1 -1.0
63 1 1.0
65 1 -1.0
149 1 1.0
0 2 350.0
10 2 1.0
69 2 -1.0
71 2 -1.0
150 2 1.0
0 3 200.0
72 3 -1.0
73 3 1.0
74 3 -1.0
75 3 1.0
78 3 -1.0
163 3 1.0
0 4 250.0
82 4 -1.0
84 4 -1.0
164 4 1.0
0 5 200.0
88 5 -1.0
90 5 -1.0
165 5 1.0
0 6 200.0
94 6 -1.0
98 6 -1.0
101 6 -1.0
166 6 1.0
0 7 -5.0
14 7 -1.0
15 7 10.0
16 7 2.39789527279837
102 7 1.0
110 7 1.0
111 7 1.0
112 7 1.0
167 7 1.0
168 7 -1.0
0 8 -8.0
20 8 -1.0
21 8 10.0
22 8 2.87747432735804
102 8 1.0
110 8 1.0
111 8 1.0
112 8 1.0
169 8 1.0
170 8 -1.0
0 9 -6.0
23 9 -1.0
24 9 -1.0
25 9 2.87747432735804
26 9 2.15810574551853
103 9 -1.0
110 9 -1.0
113 9 1.0
114 9 1.0
171 9 1.0
172 9 -1.0
0 10 -10.0
30 10 -1.0
31 10 2.87747432735804
32 10 2.03277599268042
106 10 -1.0
111 10 -1.0
115 10 1.0
173 10 1.0
174 10 -1.0
0 11 -6.0
33 11 -1.0
34 11 -1.0
35 11 -1.0
36 11 -1.0
37 11 2.87747432735804
38 11 7.0
39 11 3.5
108 11 -1.0
112 11 -1.0
116 11 1.0
117 11 1.0
118 11 1.0
175 11 1.0
176 11 -1.0
0 12 -7.0
43 12 -1.0
44 12 2.15810574551853
45 12 1.43746550029693
103 12 1.0
104 12 -1.0
113 12 -1.0
119 12 1.0
177 12 1.0
178 12 -1.0
0 13 -4.0
49 13 -1.0
50 13 2.15810574551853
51 13 1.03497516021379
103 13 1.0
105 13 -1.0
114 13 -1.0
120 13 1.0
179 13 1.0
180 13 -1.0
0 14 -5.0
55 14 -1.0
56 14 2.03277599268042
57 14 1.10947836929589
106 14 1.0
107 14 -1.0
115 14 -1.0
121 14 1.0
122 14 1.0
181 14 1.0
182 14 -1.0
0 15 -2.0
58 15 -1.0
59 15 -1.0
60 15 3.5
61 15 3.15
108 15 1.0
109 15 -1.0
116 15 -1.0
183 15 1.0
184 15 -1.0
0 16 -4.0
62 16 -1.0
63 16 -1.0
64 16 3.5
65 16 2.1
108 16 1.0
117 16 -1.0
185 16 1.0
186 16 -1.0
0 17 -3.0
69 17 -1.0
70 17 3.5
71 17 1.6544851364539
108 17 1.0
118 17 -1.0
187 17 1.0
188 17 -1.0
0 18 -7.0
72 18 -1.0
73 18 -1.0
74 18 -1.0
75 18 -1.0
76 18 1.43746550029693
77 18 5.0
78 18 5.0
104 18 1.0
119 18 -1.0
189 18 1.0
190 18 -1.0
0 19 -3.0
82 19 -1.0
83 19 1.03497516021379
84 19 0.710483612536911
105 19 1.0
120 19 -1.0
191 19 1.0
192 19 -1.0
0 20 -2.0
88 20 -1.0
89 20 1.10947836929589
90 20 0.522508489006913
107 20 1.0
121 20 -1.0
193 20 1.0
194 20 -1.0
0 21 -4.0
94 21 -1.0
98 21 -1.0
99 21 1.10947836929589
100 21 8.15
101 21 1.43894002153683
107 21 1.0
109 21 1.0
122 21 -1.0
195 21 1.0
196 21 -1.0
0 22 -1.0
1 23 1.0
123 23 1.0
124 23 -1.0
1 24 -1.0
11 24 1.0
15 24 -1.0
125 24 1.0
1 25 -1.0
17 25 1.0
21 25 -1.0
126 25 1.0
2 26 -1.0
14 26 -1.0
16 26 -1.0
127 26 1.0
2 27 -1.0
20 27 -1.0
22 27 -1.0
128 27 1.0
2 28 1.0
3 28 1.0
129 28 1.0
3 29 -1.0
4 29 1.0
131 29 1.0
4 30 -1.0
23 30 0.75
24 30 -0.75
25 30 -1.0
132 30 1.0
4 31 -1.0
27 31 1.0
31 31 -1.0
133 31 1.0
4 32 -1.0
33 32 1.0
34 32 -1.0
37 32 -1.0
134 32 1.0
5 33 1.0
23 33 -1.0
24 33 1.0
26 33 -1.0
137 33 1.0
5 34 -1.0
40 34 1.0
44 34 -1.0
140 34 1.0
5 35 -1.0
46 35 1.0
50 35 -1.0
141 35 1.0
6 36 1.0
33 36 -1.0
34 36 1.0
35 36 -1.0
36 36 1.0
39 36 -1.0
139 36 1.0
6 37 -1.0
58 37 0.9
59 37 -0.9
60 37 -1.0
142 37 1.0
6 38 -1.0
62 38 0.6
63 38 -0.6
64 38 -1.0
143 38 1.0
6 39 -1.0
66 39 1.0
70 39 -1.0
144 39 1.0
7 40 1.0
55 40 -1.0
57 40 -1.0
147 40 1.0
7 41 -1.0
85 41 1.0
89 41 -1.0
151 41 1.0
7 42 -1.0
91 42 1.0
99 42 -1.0
152 42 1.0
8 43 -1.0
58 43 -1.0
59 43 1.0
61 43 -1.0
148 43 1.0
8 44 -1.0
155 44 1.0
156 44 -1.0
8 45 1.0
95 45 1.0
100 45 -1.0
157 45 1.0
9 46 -1.0
158 46 1.0
9 47 -1.0
159 47 1.0
10 48 -1.0
160 48 1.0
10 49 -1.0
161 49 1.0
10 50 -1.0
162 50 1.0
13 51 1.0
14 51 1.0
19 52 1.0
20 52 1.2
29 53 1.0
30 53 1.5
30 54 -1.0
32 54 -1.0
52 54 1.0
56 54 -1.0
138 54 1.0
35 55 0.5
36 55 -0.5
38 55 -1.0
135 55 1.0
136 55 -1.0
42 56 1.0
43 56 1.25
43 57 -1.0
45 57 -1.0
72 57 0.9
73 57 -0.9
76 57 -1.0
145 57 1.0
48 58 1.0
49 58 0.9
49 59 -1.0
51 59 -1.0
79 59 1.0
83 59 -1.0
146 59 1.0
54 60 1.0
55 60 1.0
68 61 1.0
69 61 1.1
74 62 1.0
75 62 -1.0
77 62 -1.0
153 62 1.0
154 62 -1.0
81 63 1.0
82 63 1.0
87 64 1.0
88 64 0.7
93 65 1.0
94 65 0.65
97 66 1.0
98 66 0.65

BCOORD
67
11 1.0
12 1.0
14 1.0
17 1.0
18 1.0
20 1.0
23 1.0
24 1.0
27 1.0
28 1.0
30 1.0
33 1.0
34 1.0
35 1.0
36 1.0
40 1.0
41 1.0
43 1.0
46 1.0
47 1.0
49 1.0
52 1.0
53 1.0
55 1.0
58 1.0
59 1.0
62 1.0
63 1.0
66 1.0
67 1.0
69 1.0
72 1.0
73 1.0
74 1.0
75 1.0
79 1.0
80 1.0
82 1.0
85 1.0
86 1.0
88 1.0
91 1.0
92 1.0
94 1.0
95 1.0
96 1.0
98 1.0
102 -1.0
124 10.0
136 7.0
154 5.0
156 5.0
168 1.0
170 1.0
172 1.0
174 1.0
176 1.0
178 1.0
180 1.0
182 1.0
184 1.0
186 1.0
188 1.0
190 1.0
192 1.0
194 1.0
196 1.0
